69 69  
50 31 1
33 94 1
102 101 1
88 24 1
44 44 1
24 100 1
102 54 1
59 45 1
86 57 1
87 122 1
69 24 1
117 55 1
107 23 1
79 69 1
62 102 1
64 123 1
53 96 1
120 83 1
121 67 1
36 117 1
